Route #1: 4 27 52 34 46
Route #2: 9 25 55 50 18 24 49 23
Route #3: 1 43 42 64 41 56 63
Route #4: 16 3 44 32 40 12
Route #5: 26 58 38 10 31 39
Route #6: 7 14 59 11 53
Route #7: 8 35 19 54 13 57 15 29 45
Route #8: 5 37 20 60 36 47 48
Route #9: 62 22 61 21 28 2
Route #10: 30 33 6 51 17
Cost 828